%chk=tpm3cl-h-scan_ScanPoint11.chk
%mem=12GB
%nprocshared=12
#p td=(50-50,nstates=5)/6-31g(d,p) m062x

Input=tpm3cl-h-scan.114514 ScanPoint 11

1 1
 C       4.540126    -0.283226     0.109209
 C       5.621100    -1.197480    -0.051868
 C       5.389733    -2.623123    -0.321932
 C       4.073191    -3.138282    -0.396254
 C       6.444184    -3.541987    -0.500692
 C       6.202594    -4.881763    -0.727893
 C       4.890375    -5.373541    -0.786354
 C       3.834063    -4.504801    -0.622774
 C       4.797942     1.064327     0.432104
 C       6.092849     1.519564     0.561401
 C       7.164522     0.638535     0.376455
 C       6.927658    -0.688534     0.084511
 C       3.019132    -2.184251    -0.248432
 C       3.220625    -0.841951    -0.046292
 N       1.652685    -2.377593    -0.306289
 C       1.000892    -1.212679    -0.162940
 N       1.946429    -0.256547    -0.005943
 C       1.646777     1.134966     0.174125
 C       1.876185     2.009429    -0.879829
 C       1.587375     3.358365    -0.707606
 C       1.062305     3.830784     0.506432
 C       0.837533     2.917122     1.546740
 C       1.132468     1.566240     1.386125
 C      -0.442758    -1.082230    -0.157404
 C      -1.115171     0.019619    -0.715566
 C      -2.492054     0.074081    -0.730833
 C      -3.270438    -0.971561    -0.179780
 C      -2.590228    -2.076440     0.384492
 C      -1.213138    -2.125234     0.387834
 N      -4.643790    -0.914781    -0.190174
 C      -5.433844    -1.739294     0.673852
 C      -5.350788    -0.029766    -1.066217
 C      -6.313511     0.830597    -0.539842
 C      -7.026529     1.667574    -1.391649
 C      -6.776097     1.654472    -2.761811
 C      -5.815118     0.791003    -3.283011
 C      -5.107675    -0.059903    -2.440324
 C      -6.450098    -2.524543     0.130901
 C      -7.241746    -3.300954     0.970643
 C      -7.016968    -3.302433     2.345320
 C      -6.002157    -2.513923     2.883127
 C      -5.215082    -1.723252     2.052299
 Cl      0.194915     3.441338     3.056549
 Cl      0.702962     5.494063     0.712054
 Cl      1.885297     4.436281    -2.018365
 H       7.472661    -3.207204    -0.464497
 H       7.038059    -5.559955    -0.861542
 H       4.709050    -6.427902    -0.961654
 H       2.816340    -4.882290    -0.669755
 H       3.981918     1.753748     0.599791
 H       6.276081     2.558320     0.812444
 H       8.184231     0.993728     0.475464
 H       7.778596    -1.347134    -0.030190
 H       1.155227    -3.286145    -0.533729
 H       2.285346     1.654953    -1.819552
 H       0.958563     0.870638     2.198852
 H      -0.558193     0.837398    -1.159042
 H      -2.986449     0.932872    -1.167560
 H      -3.157765    -2.890914     0.817059
 H      -0.725466    -2.978047     0.853173
 H      -6.500400     0.829967     0.529461
 H      -7.776824     2.335031    -0.981707
 H      -7.332715     2.310147    -3.422372
 H      -5.626372     0.766642    -4.350979
 H      -4.370060    -0.750708    -2.838010
 H      -6.616344    -2.512570    -0.941750
 H      -8.033787    -3.909677     0.547956
 H      -7.635249    -3.910613     2.996447
 H      -5.832747    -2.500128     3.954531
 H      -4.434310    -1.089447     2.462377

