%chk=tpm3cl-h-scan_ScanPoint9.chk
%mem=12GB
%nprocshared=12
#p td=(50-50,nstates=5)/6-31g(d,p) m062x

Input=tpm3cl-h-scan.114514 ScanPoint 9

1 1
 C       4.539650    -0.286574     0.106772
 C       5.619106    -1.202870    -0.053348
 C       5.385342    -2.628284    -0.322309
 C       4.067872    -3.141064    -0.396757
 C       6.438087    -3.549291    -0.500165
 C       6.193872    -4.888681    -0.726833
 C       4.880697    -5.377980    -0.785749
 C       3.825956    -4.507232    -0.622926
 C       4.799763     1.060955     0.427948
 C       6.095440     1.514090     0.556788
 C       7.165625     0.630975     0.373043
 C       6.926532    -0.696000     0.082556
 C       3.015689    -2.185142    -0.249382
 C       3.219385    -0.843517    -0.047991
 N       1.648499    -2.378132    -0.307352
 C       0.999100    -1.211123    -0.163529
 N       1.945647    -0.256515    -0.007452
 C       1.648373     1.135386     0.173485
 C       1.876414     2.009715    -0.880858
 C       1.589824     3.359010    -0.707633
 C       1.068568     3.831894     0.507888
 C       0.845377     2.918361     1.548667
 C       1.137947     1.567093     1.386974
 C      -0.444146    -1.079932    -0.157432
 C      -1.116796     0.025822    -0.707968
 C      -2.493571     0.080176    -0.723140
 C      -3.272058    -0.969397    -0.179523
 C      -2.591773    -2.078331     0.376872
 C      -1.214826    -2.127080     0.379896
 N      -4.645213    -0.912541    -0.189712
 C      -5.435657    -1.743694     0.667643
 C      -5.351988    -0.020874    -1.059271
 C      -6.314013     0.836320    -0.526526
 C      -7.026695     1.679757    -1.372222
 C      -6.776614     1.676129    -2.742510
 C      -5.816361     0.815713    -3.270077
 C      -5.109227    -0.041549    -2.433603
 C      -6.452042    -2.524289     0.118294
 C      -7.244106    -3.307011     0.951763
 C      -7.019606    -3.319345     2.326430
 C      -6.004669    -2.535406     2.870636
 C      -5.217167    -1.738486     2.046211
 Cl      0.207770     3.443206     3.060372
 Cl      0.711884     5.495572     0.714718
 Cl      1.885796     4.436786    -2.018916
 H       7.467217    -3.216540    -0.463705
 H       7.028061    -5.568579    -0.859803
 H       4.697480    -6.432047    -0.960846
 H       2.807342    -4.882333    -0.670476
 H       3.984947     1.752059     0.594561
 H       6.280463     2.552849     0.806506
 H       8.185928     0.984551     0.471728
 H       7.776329    -1.356196    -0.031447
 H       1.174794    -3.244702    -0.521293
 H       2.282629     1.654863    -1.821716
 H       0.965245     0.871560     2.200018
 H      -0.560186     0.846784    -1.145856
 H      -2.987931     0.941948    -1.153971
 H      -3.159264    -2.896109     0.803197
 H      -0.727516    -2.983774     0.838414
 H      -6.500616     0.828208     0.542796
 H      -7.776444     2.344805    -0.957399
 H      -7.332991     2.336788    -3.398292
 H      -5.627950     0.798763    -4.338244
 H      -4.372173    -0.730036    -2.836318
 H      -6.618062    -2.503849    -0.954260
 H      -8.036247    -3.912149     0.524154
 H      -7.638219    -3.932411     2.972643
 H      -5.835488    -2.530091     3.942149
 H      -4.436332    -1.108111     2.461423

