%chk=tpm3cl-h-scan_ScanPoint1.chk
%mem=12GB
%nprocshared=12
#p td=(50-50,nstates=5)/6-31g(d,p) m062x

Input=tpm3cl-h-scan.114514 ScanPoint 1

1 1
 C       4.537599    -0.301976     0.095951
 C       5.609977    -1.227767    -0.058912
 C       5.365148    -2.652114    -0.322553
 C       4.043483    -3.153819    -0.398694
 C       6.410106    -3.583071    -0.494737
 C       6.154036    -4.920739    -0.718443
 C       4.836567    -5.398548    -0.780394
 C       3.789049    -4.518376    -0.622607
 C       4.808214     1.045454     0.408963
 C       6.107354     1.488804     0.536321
 C       7.170648     0.595971     0.359004
 C       6.921322    -0.730552     0.075448
 C       2.999851    -2.189152    -0.254537
 C       3.213793    -0.850267    -0.056246
 N       1.630488    -2.377996    -0.313117
 C       0.990960    -1.203391    -0.168586
 N       1.942416    -0.255487    -0.015660
 C       1.656057     1.138226     0.168150
 C       1.877607     2.011130    -0.888687
 C       1.601021     3.362143    -0.712062
 C       1.097137     3.838008     0.509697
 C       0.881377     2.925875     1.553348
 C       1.163386     1.572815     1.387959
 C      -0.450403    -1.069432    -0.160900
 C      -1.124955     0.054208    -0.673384
 C      -2.501344     0.107470    -0.686826
 C      -3.279339    -0.960630    -0.178789
 C      -2.597808    -2.088349     0.337968
 C      -1.221492    -2.136152     0.338343
 N      -4.651626    -0.903860    -0.186144
 C      -5.442481    -1.766505     0.639469
 C      -5.358789     0.020258    -1.021298
 C      -6.315705     0.861486    -0.455134
 C      -7.028234     1.736538    -1.268223
 C      -6.783031     1.779727    -2.638731
 C      -5.827924     0.934824    -3.199715
 C      -5.120793     0.046507    -2.396293
 C      -6.460215    -2.524013     0.061218
 C      -7.253034    -3.336687     0.864767
 C      -7.027943    -3.401467     2.237854
 C      -6.011620    -2.640302     2.810977
 C      -5.223250    -1.813806     2.017078
 Cl      0.266510     3.454626     3.073068
 Cl      0.752295     5.503591     0.720556
 Cl      1.887904     4.438275    -2.026572
 H       7.442159    -3.259711    -0.456114
 H       6.982403    -5.608569    -0.847036
 H       4.644718    -6.451335    -0.953936
 H       2.766444    -4.882319    -0.673053
 H       3.998931     1.744391     0.569790
 H       6.300586     2.527580     0.779674
 H       8.193631     0.942014     0.456666
 H       7.765846    -1.398135    -0.034740
 H       1.250393    -3.074669    -0.477692
 H       2.270269     1.653861    -1.834358
 H       0.996329     0.878194     2.202973
 H      -0.570825     0.890397    -1.084146
 H      -2.996303     0.982978    -1.088165
 H      -3.164426    -2.921587     0.734386
 H      -0.734591    -3.010268     0.763061
 H      -6.498469     0.816501     0.613935
 H      -7.773987     2.389450    -0.827734
 H      -7.339375     2.464793    -3.269000
 H      -5.643511     0.954576    -4.268520
 H      -4.387657    -0.630164    -2.825342
 H      -6.626686    -2.462689    -1.009692
 H      -8.046227    -3.923987     0.414852
 H      -7.647209    -4.037603     2.860716
 H      -5.841963    -2.675977     3.881823
 H      -4.441462    -1.200647     2.455617

