%chk=tpm3cl-h-scan_ScanPoint5.chk
%mem=12GB
%nprocshared=12
#p td=(50-50,nstates=5)/6-31g(d,p) m062x

Input=tpm3cl-h-scan.114514 ScanPoint 5

1 1
 C       4.538652    -0.294253     0.100947
 C       5.614599    -1.215212    -0.056945
 C       5.375321    -2.640159    -0.322989
 C       4.055754    -3.147554    -0.397486
 C       6.424183    -3.566062    -0.498507
 C       6.174048    -4.904651    -0.723425
 C       4.858730    -5.388355    -0.783059
 C       3.807581    -4.512986    -0.622247
 C       4.804028     1.053261     0.417936
 C       6.101459     1.501635     0.545474
 C       7.168216     0.613757     0.364462
 C       6.924006    -0.713039     0.077586
 C       3.007812    -2.187305    -0.251397
 C       3.216590    -0.847024    -0.051951
 N       1.639265    -2.378633    -0.309134
 C       0.995016    -1.207442    -0.164852
 N       1.944021    -0.256188    -0.011008
 C       1.652179     1.136652     0.171288
 C       1.877088     2.010226    -0.884320
 C       1.595481     3.360392    -0.709455
 C       1.082789     3.834828     0.509146
 C       0.863188     2.922037     1.551374
 C       1.150485     1.569854     1.387891
 C      -0.447332    -1.074644    -0.157570
 C      -1.120711     0.039543    -0.690835
 C      -2.497282     0.093511    -0.705442
 C      -3.275735    -0.964691    -0.178274
 C      -2.595047    -2.082407     0.360263
 C      -1.218405    -2.130870     0.362271
 N      -4.648474    -0.907824    -0.187624
 C      -5.439446    -1.753578     0.654993
 C      -5.355067    -0.001363    -1.042133
 C      -6.315198     0.848650    -0.494755
 C      -7.027417     1.706476    -1.326258
 C      -6.778725     1.724075    -2.696699
 C      -5.820396     0.870607    -3.238894
 C      -5.113670    -0.000798    -2.416831
 C      -6.456431    -2.523491     0.091913
 C      -7.249126    -3.320112     0.911497
 C      -7.024643    -3.356789     2.285727
 C      -6.009099    -2.583378     2.843666
 C      -5.220930    -1.772701     2.033418
 Cl      0.236821     3.448915     3.067054
 Cl      0.732033     5.499478     0.717924
 Cl      1.887045     4.437291    -2.022376
 H       7.454773    -3.237892    -0.461595
 H       7.005332    -5.588448    -0.854627
 H       4.671215    -6.441826    -0.957185
 H       2.786982    -4.882687    -0.670672
 H       3.991974     1.748201     0.582067
 H       6.290591     2.540427     0.791955
 H       8.189875     0.963670     0.462179
 H       7.771186    -1.376866    -0.034846
 H       1.212326    -3.160519    -0.497248
 H       2.276647     1.654127    -1.827548
 H       0.980512     0.874819     2.201942
 H      -0.565114     0.867536    -1.116304
 H      -2.991772     0.961730    -1.122923
 H      -3.162267    -2.907382     0.772821
 H      -0.731525    -2.995823     0.805431
 H      -6.500695     0.823796     0.574502
 H      -7.775689     2.366063    -0.900214
 H      -7.334781     2.395837    -3.341378
 H      -5.633181     0.870297    -4.307400
 H      -4.378084    -0.683995    -2.831080
 H      -6.622421    -2.484092    -0.980109
 H      -8.041733    -3.917000     0.473304
 H      -7.643766    -3.980590     2.921087
 H      -5.839934    -2.597089     3.915101
 H      -4.439699    -1.150255     2.459692

