#p opt=modredundant 6-31g(d,p) geom=connectivity m062x

Input=tpm3cl-h-scan.114514 ScanPoint 14

1 1
 C       4.540865    -0.279095     0.112402
 C       5.623725    -1.190757    -0.050019
 C       5.395341    -2.616683    -0.321437
 C       4.079980    -3.134865    -0.395380
 C       6.451933    -3.532818    -0.501466
 C       6.213668    -4.873096    -0.729220
 C       4.902669    -5.368032    -0.786830
 C       3.844400    -4.501819    -0.622183
 C       4.795817     1.068470     0.437497
 C       6.089763     1.526351     0.567250
 C       7.163288     0.647968     0.380644
 C       6.929198    -0.679202     0.086842
 C       3.023507    -2.183254    -0.246919
 C       3.222260    -0.839963    -0.043898
 N       1.658198    -2.376462    -0.304246
 C       1.003198    -1.214572    -0.161770
 N       1.947596    -0.256441    -0.003670
 C       1.644921     1.134560     0.175308
 C       1.875949     2.009224    -0.878152
 C       1.584259     3.357680    -0.707183
 C       1.054364     3.829466     0.504975
 C       0.827678     2.915614     1.544679
 C       1.125689     1.565251     1.385418
 C      -0.440997    -1.084999    -0.157052
 C      -1.113017     0.011605    -0.725289
 C      -2.490059     0.066209    -0.740811
 C      -3.268371    -0.974181    -0.180139
 C      -2.588318    -2.073597     0.394595
 C      -1.211022    -2.122397     0.398560
 N      -4.642014    -0.917511    -0.191038
 C      -5.431726    -1.733218     0.681504
 C      -5.349150    -0.041437    -1.075767
 C      -6.312948     0.823009    -0.558063
 C      -7.026285     1.651319    -1.418032
 C      -6.775118     1.625683    -2.787873
 C      -5.813038     0.758284    -3.300418
 C      -5.105313    -0.084098    -2.449431
 C      -6.447771    -2.524410     0.146804
 C      -7.239069    -3.292459     0.994524
 C      -7.014159    -3.279790     2.369121
 C      -5.999557    -2.485449     2.898681
 C      -5.212858    -1.703047     2.059704
 Cl      0.178740     3.438965     3.052100
 Cl      0.691539     5.492210     0.709073
 Cl      1.884535     4.435808    -2.017280
 H       7.479572    -3.195431    -0.465804
 H       7.050735    -5.549115    -0.863832
 H       4.723717    -6.422779    -0.962253
 H       2.827803    -4.882298    -0.668170
 H       3.978291     1.755749     0.606652
 H       6.270758     2.565089     0.819987
 H       8.182256     1.005190     0.479970
 H       7.781557    -1.335785    -0.028833
 H       1.124219    -3.347535    -0.551723
 H       2.288820     1.655260    -1.816447
 H       0.950330     0.869539     2.197735
 H      -0.555515     0.825142    -1.176023
 H      -2.984451     0.921025    -1.185297
 H      -3.155950    -2.883614     0.835356
 H      -0.722848    -2.969887     0.873049
 H      -6.500424     0.832296     0.511096
 H      -7.777411     2.321883    -1.014724
 H      -7.331949     2.274675    -3.454822
 H      -5.623631     0.724120    -4.368003
 H      -4.366849    -0.777882    -2.840294
 H      -6.614144    -2.523487    -0.925899
 H      -8.030950    -3.905744     0.578167
 H      -7.632154    -3.881488     3.026510
 H      -5.830024    -2.460592     3.969870
 H      -4.432219    -1.064857     2.463182

