%chk=tdtpm3cl-h-scan_ScanPoint8.chk
%mem=12GB
%nprocshared=12
#P B3LYP/6-31G(d) opt freq

Input=tpm3cl-h-scan.114514 ScanPoint 8

1 1
 C       4.539419    -0.288379     0.105148
 C       5.618034    -1.205802    -0.054401
 C       5.382943    -2.631133    -0.322523
 C       4.064966    -3.142635    -0.396852
 C       6.434750    -3.553323    -0.499829
 C       6.189103    -4.892542    -0.725960
 C       4.875410    -5.380511    -0.784924
 C       3.821534    -4.508647    -0.622577
 C       4.800804     1.059184     0.425164
 C       6.096907     1.511201     0.553577
 C       7.166267     0.626930     0.370525
 C       6.925941    -0.700037     0.081054
 C       3.013805    -2.185669    -0.249792
 C       3.218717    -0.844355    -0.049023
 N       1.646250    -2.378352    -0.307679
 C       0.998125    -1.210273    -0.163719
 N       1.945256    -0.256449    -0.008384
 C       1.649273     1.135688     0.172816
 C       1.876507     2.009783    -0.881887
 C       1.591105     3.359294    -0.708324
 C       1.071962     3.832613     0.507944
 C       0.849690     2.919311     1.549130
 C       1.140996     1.567815     1.387059
 C      -0.444910    -1.078684    -0.157239
 C      -1.117731     0.028977    -0.703943
 C      -2.494456     0.083250    -0.718966
 C      -3.272931    -0.968259    -0.178967
 C      -2.592554    -2.079169     0.373469
 C      -1.215680    -2.127882     0.376209
 N      -4.645986    -0.911381    -0.188934
 C      -5.436541    -1.745812     0.665166
 C      -5.352731    -0.016443    -1.055206
 C      -6.314323     0.839208    -0.519230
 C      -7.026919     1.685816    -1.361826
 C      -6.777172     1.686825    -2.732183
 C      -5.817359     0.827897    -3.262978
 C      -5.110300    -0.032481    -2.429652
 C      -6.453072    -2.524046     0.112758
 C      -7.245264    -3.309881     0.943171
 C      -7.020742    -3.327640     2.317774
 C      -6.005659    -2.546025     2.865038
 C      -5.218022    -1.746021     2.043735
 Cl      0.214854     3.444721     3.061801
 Cl      0.716695     5.496532     0.715174
 Cl      1.885938     4.436790    -2.020076
 H       7.464233    -3.221661    -0.463369
 H       7.022592    -5.573380    -0.858522
 H       4.691154    -6.434449    -0.959707
 H       2.802439    -4.882464    -0.670265
 H       3.986655     1.751223     0.591156
 H       6.282921     2.549997     0.802401
 H       8.186899     0.979644     0.468887
 H       7.775109    -1.361112    -0.032547
 H       1.184273    -3.223847    -0.514864
 H       2.281086     1.654586    -1.823318
 H       0.968990     0.872445     2.200392
 H      -0.561354     0.851509    -1.139101
 H      -2.988848     0.946476    -1.146828
 H      -3.159978    -2.898565     0.796754
 H      -0.728486    -2.986467     0.831288
 H      -6.500662     0.827429     0.550105
 H      -7.776333     2.349688    -0.944527
 H      -7.333491     2.349928    -3.385541
 H      -5.629239     0.814580    -4.331247
 H      -4.373584    -0.719836    -2.834913
 H      -6.619107    -2.499381    -0.959704
 H      -8.037518    -3.913197     0.513207
 H      -7.639456    -3.943115     2.961595
 H      -5.836464    -2.544949     3.936560
 H      -4.437096    -1.117390     2.461411

