%chk=tdtpm3cl-h-scan_ScanPoint18.chk
%mem=12GB
%nprocshared=12
#P B3LYP/6-31G(d) opt freq

Input=tpm3cl-h-scan.114514 ScanPoint 18

1 1
 C       4.541802    -0.274567     0.115900
 C       5.626759    -1.183309    -0.048047
 C       5.401703    -2.609578    -0.320775
 C       4.087694    -3.131171    -0.394035
 C       6.460660    -3.522671    -0.502240
 C       6.226093    -4.863550    -0.730328
 C       4.916469    -5.362044    -0.786674
 C       3.856063    -4.498600    -0.620845
 C       4.793566     1.073037     0.443314
 C       6.086439     1.533911     0.573380
 C       7.162022     0.658500     0.384892
 C       6.931013    -0.668807     0.089170
 C       3.028420    -2.182331    -0.244877
 C       3.224104    -0.837701    -0.041082
 N       1.664697    -2.374663    -0.301198
 C       1.005793    -1.216748    -0.160105
 N       1.949034    -0.256152    -0.000968
 C       1.642949     1.134264     0.176632
 C       1.875620     2.009051    -0.876403
 C       1.580702     3.356977    -0.706970
 C       1.045524     3.828171     0.503059
 C       0.816823     2.914214     1.542203
 C       1.118293     1.564432     1.384596
 C      -0.439065    -1.088163    -0.156429
 C      -1.110584     0.002150    -0.736425
 C      -2.487838     0.056911    -0.752266
 C      -3.266071    -0.977210    -0.180430
 C      -2.586210    -2.070109     0.406471
 C      -1.208652    -2.118854     0.411262
 N      -4.640090    -0.920671    -0.191959
 C      -5.429474    -1.725887     0.690415
 C      -5.347310    -0.055102    -1.086733
 C      -6.312145     0.814239    -0.579185
 C      -7.025772     1.632401    -1.448574
 C      -6.773869     1.591982    -2.817912
 C      -5.810721     0.719872    -3.320325
 C      -5.102760    -0.112529    -2.459751
 C      -6.445638    -2.523476     0.165464
 C      -7.236638    -3.281560     1.022374
 C      -7.011321    -3.252746     2.396657
 C      -5.996604    -2.452147     2.916485
 C      -5.210247    -1.679579     2.068124
 Cl      0.160974     3.436737     3.046949
 Cl      0.678784     5.490327     0.705286
 Cl      1.883444     4.435207    -2.016481
 H       7.487357    -3.182353    -0.467410
 H       7.064933    -5.537146    -0.866030
 H       4.740155    -6.417256    -0.961977
 H       2.840654    -4.882196    -0.665388
 H       3.974365     1.757911     0.614119
 H       6.264933     2.572652     0.827881
 H       8.180162     1.018013     0.484430
 H       7.784947    -1.323141    -0.027604
 H       1.080624    -3.428293    -0.575392
 H       2.292539     1.655565    -1.813089
 H       0.941410     0.868681     2.196544
 H      -0.552479     0.810633    -1.195623
 H      -2.982213     0.906984    -1.205803
 H      -3.153956    -2.874790     0.856797
 H      -0.719782    -2.959864     0.896501
 H      -6.500207     0.835221     0.489705
 H      -7.777695     2.306693    -1.053031
 H      -7.330873     2.233147    -3.492245
 H      -5.620632     0.674166    -4.387361
 H      -4.363463    -0.809871    -2.842623
 H      -6.612367    -2.535189    -0.907125
 H      -8.028616    -3.899726     0.613473
 H      -7.629060    -3.846717     3.061271
 H      -5.826723    -2.414658     3.987255
 H      -4.429506    -1.036677     2.463852

