%chk=tdtpm3cl-h-scan_ScanPoint2.chk
%mem=12GB
%nprocshared=12
#P B3LYP/6-31G(d) opt freq

Input=tpm3cl-h-scan.114514 ScanPoint 2

1 1
 C       4.537930    -0.299625     0.097472
 C       5.611384    -1.223991    -0.058175
 C       5.368219    -2.648497    -0.322619
 C       4.047169    -3.151832    -0.398578
 C       6.414328    -3.578007    -0.495581
 C       6.159987    -4.915926    -0.719774
 C       4.843139    -5.395415    -0.781388
 C       3.794546    -4.516629    -0.622890
 C       4.806949     1.047831     0.411708
 C       6.105569     1.492662     0.539295
 C       7.169912     0.601289     0.361006
 C       6.922142    -0.725311     0.076404
 C       3.002263    -2.188472    -0.253946
 C       3.214670    -0.849235    -0.055128
 N       1.633091    -2.378262    -0.312502
 C       0.992213    -1.204552    -0.167879
 N       1.942898    -0.255666    -0.014534
 C       1.654901     1.137772     0.168939
 C       1.877318     2.010936    -0.887509
 C       1.599184     3.361678    -0.711310
 C       1.092778     3.837030     0.509594
 C       0.876036     2.924641     1.552805
 C       1.159671     1.571862     1.387883
 C      -0.449446    -1.071036    -0.160322
 C      -1.123750     0.050073    -0.678411
 C      -2.500187     0.103471    -0.692116
 C      -3.278226    -0.962013    -0.178820
 C      -2.596873    -2.087092     0.343723
 C      -1.220471    -2.135041     0.344463
 N      -4.650634    -0.905224    -0.186629
 C      -5.441508    -1.763367     0.643598
 C      -5.357662     0.014318    -1.026864
 C      -6.315261     0.858027    -0.465546
 C      -7.027711     1.728630    -1.283466
 C      -6.781744     1.764999    -2.654034
 C      -5.825938     0.917686    -3.210166
 C      -5.118911     0.033737    -2.401852
 C      -6.459009    -2.524275     0.069392
 C      -7.251807    -3.332655     0.877280
 C      -7.026931    -3.389827     2.250741
 C      -6.010856    -2.625297     2.819819
 C      -5.222526    -1.803038     2.021493
 Cl      0.257858     3.452725     3.071413
 Cl      0.746099     5.502305     0.719953
 Cl      1.887256     4.438112    -2.025327
 H       7.445961    -3.253287    -0.457182
 H       6.989215    -5.602601    -0.848968
 H       4.652568    -6.448386    -0.955216
 H       2.772499    -4.882164    -0.673006
 H       3.996818     1.745586     0.573397
 H       6.297561     2.531442     0.783606
 H       8.192493     0.948475     0.458815
 H       7.767468    -1.391778    -0.034387
 H       1.241481    -3.096299    -0.483165
 H       2.271940     1.654080    -1.832521
 H       0.991853     0.877070     2.202593
 H      -0.569260     0.884073    -1.093201
 H      -2.995098     0.976993    -1.097833
 H      -3.163620    -2.918166     0.744482
 H      -0.733532    -3.006750     0.774055
 H      -6.498623     0.818402     0.603633
 H      -7.774005     2.383429    -0.846708
 H      -7.338013     2.446631    -3.288081
 H      -5.640905     0.932100    -4.278950
 H      -4.385239    -0.644771    -2.827065
 H      -6.625313    -2.468880    -1.001870
 H      -8.044813    -3.922588     0.430487
 H      -7.646171    -4.022659     2.876986
 H      -5.841375    -2.655019     3.890876
 H      -4.440913    -1.187330     2.456763

