%chk=tdtpm3cl-h-scan_ScanPoint10.chk
%mem=12GB
%nprocshared=12
#P B3LYP/6-31G(d) opt freq

Input=tpm3cl-h-scan.114514 ScanPoint 10

1 1
 C       4.539909    -0.284743     0.107986
 C       5.620179    -1.199956    -0.052600
 C       5.387699    -2.625503    -0.322095
 C       4.070723    -3.139550    -0.396468
 C       6.441350    -3.545377    -0.500405
 C       6.198525    -4.884978    -0.727329
 C       4.885857    -5.375594    -0.786006
 C       3.830279    -4.505910    -0.622808
 C       4.798792     1.062818     0.430001
 C       6.094058     1.517086     0.559060
 C       7.165040     0.635076     0.374723
 C       6.927141    -0.691967     0.083529
 C       3.017545    -2.184636    -0.248875
 C       3.220057    -0.842659    -0.047135
 N       1.650732    -2.377898    -0.306835
 C       1.000074    -1.211967    -0.163224
 N       1.946059    -0.256534    -0.006718
 C       1.647506     1.135164     0.173716
 C       1.876233     2.009526    -0.880460
 C       1.588439     3.358631    -0.707815
 C       1.065188     3.831309     0.506918
 C       0.841207     2.917745     1.547493
 C       1.135050     1.566680     1.386416
 C      -0.443384    -1.081201    -0.157406
 C      -1.115931     0.022460    -0.712031
 C      -2.492761     0.076854    -0.727236
 C      -3.271172    -0.970620    -0.179592
 C      -2.590906    -2.077385     0.381011
 C      -1.213885    -2.126161     0.384152
 N      -4.644427    -0.913797    -0.189825
 C      -5.434631    -1.741372     0.671167
 C      -5.351359    -0.025683    -1.062833
 C      -6.313685     0.833265    -0.533448
 C      -7.026583     1.673246    -1.382394
 C      -6.776421     1.664491    -2.752642
 C      -5.815853     0.802380    -3.276850
 C      -5.108519    -0.051481    -2.437071
 C      -6.450983    -2.524468     0.125312
 C      -7.242804    -3.303769     0.962211
 C      -7.018096    -3.310240     2.336885
 C      -6.003189    -2.523845     2.877595
 C      -5.215936    -1.730312     2.049671
 Cl      0.200970     3.442304     3.058188
 Cl      0.707056     5.494774     0.713047
 Cl      1.885370     4.436429    -2.018878
 H       7.470134    -3.211548    -0.464090
 H       7.033392    -5.563973    -0.860642
 H       4.703645    -6.429820    -0.961198
 H       2.812132    -4.882268    -0.670071
 H       3.983331     1.753033     0.597146
 H       6.278123     2.555858     0.809427
 H       8.185025     0.989524     0.473557
 H       7.777548    -1.351315    -0.030819
 H       1.165242    -3.265507    -0.527536
 H       2.283988     1.654842    -1.820715
 H       0.961742     0.871141     2.199325
 H      -0.559143     0.841723    -1.152930
 H      -2.987156     0.937029    -1.161217
 H      -3.158404    -2.893402     0.810697
 H      -0.726372    -2.980795     0.846294
 H      -6.500360     0.829195     0.535885
 H      -7.776570     2.339627    -0.970146
 H      -7.332955     2.322482    -3.410966
 H      -5.627350     0.781418    -4.344931
 H      -4.371223    -0.741256    -2.837130
 H      -6.617172    -2.508596    -0.947296
 H      -8.034921    -3.910833     0.537293
 H      -7.636515    -3.920659     2.985784
 H      -5.833841    -2.513951     3.949051
 H      -4.435110    -1.098088     2.462080

