%chk=tpm3cl-h-scan_ScanPoint12.chk
%mem=12GB
%nprocshared=12
#p td=(50-50,nstates=5)/6-31g(d,p) m062x

Input=tpm3cl-h-scan.114514 ScanPoint 12

1 1
 C       4.540391    -0.281678     0.110385
 C       5.622064    -1.194986    -0.051143
 C       5.391800    -2.620731    -0.321717
 C       4.075689    -3.136989    -0.395971
 C       6.447038    -3.538600    -0.500906
 C       6.206664    -4.878555    -0.728347
 C       4.894890    -5.371480    -0.786578
 C       3.837855    -4.503666    -0.622644
 C       4.797146     1.065884     0.434075
 C       6.091696     1.522092     0.563579
 C       7.164056     0.642030     0.378071
 C       6.928221    -0.685081     0.085451
 C       3.020754    -2.183841    -0.247938
 C       3.221234    -0.841207    -0.045449
 N       1.654689    -2.377245    -0.305715
 C       1.001756    -1.213373    -0.162599
 N       1.946846    -0.256520    -0.005179
 C       1.646077     1.134801     0.174518
 C       1.876078     2.009358    -0.879237
 C       1.586203     3.358113    -0.707448
 C       1.059369     3.830275     0.505915
 C       0.833905     2.916524     1.545988
 C       1.129972     1.565835     1.385841
 C      -0.442086    -1.083270    -0.157363
 C      -1.114370     0.016712    -0.719135
 C      -2.491307     0.071210    -0.734501
 C      -3.269658    -0.972567    -0.179983
 C      -2.589491    -2.075501     0.388031
 C      -1.212331    -2.124304     0.391566
 N      -4.643112    -0.915820    -0.190517
 C      -5.433025    -1.737138     0.676637
 C      -5.350193    -0.034021    -1.069681
 C      -6.313238     0.827873    -0.546387
 C      -7.026411     1.661722    -1.401125
 C      -6.775822     1.644036    -2.771203
 C      -5.814519     0.779086    -3.289328
 C      -5.106934    -0.068744    -2.443661
 C      -6.449202    -2.524576     0.136703
 C      -7.240717    -3.297935     0.979380
 C      -7.015889    -3.294227     2.354044
 C      -6.001160    -2.503563     2.888837
 C      -5.214228    -1.715910     2.055011
 Cl      0.188977     3.440393     3.054936
 Cl      0.698740     5.493352     0.711012
 Cl      1.884970     4.436129    -2.017948
 H       7.475210    -3.202872    -0.464848
 H       7.042719    -5.555955    -0.862320
 H       4.714437    -6.425977    -0.961960
 H       2.820543    -4.882247    -0.669338
 H       3.980566     1.754524     0.602260
 H       6.274100     2.560846     0.815236
 H       8.183490     0.997969     0.477223
 H       7.779684    -1.342941    -0.029580
 H       1.145202    -3.306694    -0.539931
 H       2.286597     1.655089    -1.818447
 H       0.955538     0.870178     2.198405
 H      -0.557209     0.832988    -1.165202
 H      -2.985707     0.928589    -1.173995
 H      -3.157053    -2.888397     0.823533
 H      -0.724481    -2.975239     0.860158
 H      -6.500257     0.830863     0.522890
 H      -7.776953     2.330346    -0.993540
 H      -7.332550     2.297299    -3.434057
 H      -5.625625     0.751134    -4.357183
 H      -4.369073    -0.760678    -2.838920
 H      -6.615497    -2.516648    -0.935981
 H      -8.032697    -3.908341     0.559010
 H      -7.634062    -3.900042     3.007474
 H      -5.831709    -2.485708     3.960175
 H      -4.433513    -1.080480     2.462676

