%chk=tpm3cl-h-scan_ScanPoint16.chk
%mem=12GB
%nprocshared=12
#p td=(50-50,nstates=5)/6-31g(d,p) m062x

Input=tpm3cl-h-scan.114514 ScanPoint 16

1 1
 C       4.541336    -0.276736     0.114216
 C       5.625288    -1.186887    -0.048985
 C       5.398635    -2.612990    -0.321108
 C       4.083973    -3.132938    -0.394741
 C       6.456460    -3.527545    -0.501866
 C       6.220121    -4.868131    -0.729828
 C       4.909835    -5.364911    -0.786834
 C       3.850450    -4.500140    -0.621584
 C       4.794631     1.070848     0.440522
 C       6.088019     1.530279     0.570468
 C       7.162614     0.653434     0.382907
 C       6.930127    -0.673806     0.088094
 C       3.026059    -2.182756    -0.245921
 C       3.223216    -0.838800    -0.042468
 N       1.661535    -2.375594    -0.302773
 C       1.004541    -1.215694    -0.160987
 N       1.948326    -0.256318    -0.002306
 C       1.643885     1.134381     0.175981
 C       1.875778     2.009123    -0.877242
 C       1.582423     3.357305    -0.707046
 C       1.049788     3.828768     0.504017
 C       0.822051     2.914846     1.543416
 C       1.121845     1.564783     1.384988
 C      -0.439990    -1.086625    -0.156785
 C      -1.111760     0.006785    -0.731028
 C      -2.488908     0.061481    -0.746690
 C      -3.267182    -0.975714    -0.180290
 C      -2.587221    -2.071814     0.400671
 C      -1.209793    -2.120595     0.405040
 N      -4.641016    -0.919113    -0.191505
 C      -5.430549    -1.729483     0.686082
 C      -5.348216    -0.048423    -1.081395
 C      -6.312574     0.818511    -0.568884
 C      -7.026087     1.641615    -1.433691
 C      -6.774545     1.608415    -2.803295
 C      -5.811893     0.738618    -3.310658
 C      -5.104018    -0.098643    -2.454749
 C      -6.446589    -2.524036     0.156348
 C      -7.237719    -3.287021     1.008781
 C      -7.012654    -3.266030     2.383248
 C      -5.998061    -2.468393     2.907851
 C      -5.211551    -1.690992     2.064061
 Cl      0.169531     3.437748     3.049462
 Cl      0.684952     5.491208     0.707178
 Cl      1.883995     4.435506    -2.016818
 H       7.483611    -3.188639    -0.466594
 H       7.058111    -5.542892    -0.864991
 H       4.732256    -6.419895    -0.962227
 H       2.834483    -4.882277    -0.666870
 H       3.976234     1.756882     0.610518
 H       6.267715     2.569018     0.824128
 H       8.181152     1.011842     0.482370
 H       7.783306    -1.329223    -0.028135
 H       1.102711    -3.388075    -0.563558
 H       2.290752     1.655420    -1.814708
 H       0.945692     0.869040     2.197104
 H      -0.553947     0.817745    -1.186104
 H      -2.983290     0.913886    -1.195808
 H      -3.154908    -2.879120     0.846329
 H      -0.721276    -2.964806     0.885017
 H      -6.500348     0.833783     0.500154
 H      -7.777641     2.314075    -1.034354
 H      -7.331489     2.253392    -3.474034
 H      -5.622139     0.698546    -4.377979
 H      -4.365109    -0.794240    -2.841526
 H      -6.613101    -2.529626    -0.916322
 H      -8.029596    -3.902878     0.596223
 H      -7.630508    -3.863801     3.044341
 H      -5.828394    -2.437026     3.978850
 H      -4.430908    -1.050323     2.463586

