%chk=tpm3cl-h-scan_ScanPoint15.chk
%mem=12GB
%nprocshared=12
#p td=(50-50,nstates=5)/6-31g(d,p) m062x

Input=tpm3cl-h-scan.114514 ScanPoint 15

1 1
 C       4.541110    -0.277786     0.113413
 C       5.624568    -1.188633    -0.049386
 C       5.397128    -2.614649    -0.321214
 C       4.082144    -3.133775    -0.395066
 C       6.454387    -3.529933    -0.501617
 C       6.217159    -4.870369    -0.729537
 C       4.906544    -5.366289    -0.786907
 C       3.847668    -4.500856    -0.621961
 C       4.795153     1.069790     0.439167
 C       6.088792     1.528510     0.569075
 C       7.162903     0.650957     0.381997
 C       6.929693    -0.676252     0.087641
 C       3.024899    -2.182937    -0.246424
 C       3.222779    -0.839310    -0.043142
 N       1.659990    -2.376029    -0.303625
 C       1.003938    -1.215173    -0.161413
 N       1.947979    -0.256371    -0.002997
 C       1.644332     1.134462     0.175630
 C       1.875858     2.009194    -0.877674
 C       1.583247     3.357494    -0.707104
 C       1.051831     3.829075     0.504458
 C       0.824554     2.915160     1.543971
 C       1.123545     1.564965     1.385140
 C      -0.440435    -1.085900    -0.156976
 C      -1.112329     0.008964    -0.728503
 C      -2.489425     0.063599    -0.744111
 C      -3.267701    -0.975055    -0.180287
 C      -2.587693    -2.072664     0.397842
 C      -1.210330    -2.121463     0.401994
 N      -4.641440    -0.918415    -0.191313
 C      -5.431025    -1.731207     0.684022
 C      -5.348636    -0.045269    -1.078838
 C      -6.312690     0.820574    -0.563932
 C      -7.026148     1.646045    -1.426526
 C      -6.774849     1.616243    -2.796256
 C      -5.812502     0.747499    -3.306007
 C      -5.104669    -0.092088    -2.452349
 C      -6.447074    -2.524262     0.152080
 C      -7.238247    -3.289534     1.002423
 C      -7.013210    -3.272282     2.376948
 C      -5.998602    -2.476118     2.903753
 C      -5.212038    -1.696460     2.062099
 Cl      0.173627     3.438231     3.050638
 Cl      0.687895     5.491645     0.708073
 Cl      1.884245     4.435690    -2.016996
 H       7.481764    -3.191735    -0.466108
 H       7.054727    -5.545710    -0.864429
 H       4.728333    -6.421156    -0.962366
 H       2.831407    -4.882218    -0.667654
 H       3.977149     1.756398     0.608742
 H       6.269076     2.567249     0.822316
 H       8.181635     1.008821     0.481432
 H       7.782500    -1.332204    -0.028307
 H       1.113688    -3.367835    -0.557859
 H       2.289897     1.655395    -1.815517
 H       0.947734     0.869218     2.197328
 H      -0.554662     0.821103    -1.181601
 H      -2.983825     0.917097    -1.191123
 H      -3.155350    -2.881206     0.841283
 H      -0.721967    -2.967184     0.879450
 H      -6.500275     0.833149     0.505174
 H      -7.777474     2.317670    -1.025361
 H      -7.331761     2.263043    -3.465262
 H      -5.622963     0.710081    -4.373460
 H      -4.365998    -0.786891    -2.841005
 H      -6.613557    -2.526920    -0.920604
 H      -8.030134    -3.904244     0.588180
 H      -7.631102    -3.871828     3.036396
 H      -5.828962    -2.447678     3.974837
 H      -4.431388    -1.056898     2.463378

