#p opt=modredundant 6-31g(d,p) geom=connectivity m062x

Input=tpm3cl-h-scan.114514 ScanPoint 7

1 1
 C       4.539158    -0.290381     0.103611
 C       5.616864    -1.209007    -0.055398
 C       5.380343    -2.634218    -0.322761
 C       4.061824    -3.144338    -0.397042
 C       6.431147    -3.557666    -0.499506
 C       6.183975    -4.896682    -0.725169
 C       4.869729    -5.383216    -0.784253
 C       3.816781    -4.510166    -0.622379
 C       4.801910     1.057177     0.422549
 C       6.098470     1.507964     0.550594
 C       7.166942     0.622464     0.368214
 C       6.925286    -0.704455     0.079671
 C       3.011755    -2.186254    -0.250288
 C       3.217986    -0.845281    -0.050040
 N       1.643840    -2.378499    -0.308038
 C       0.997052    -1.209326    -0.163987
 N       1.944834    -0.256377    -0.009256
 C       1.650262     1.136000     0.172339
 C       1.876667     2.009932    -0.882669
 C       1.592564     3.359665    -0.708631
 C       1.075661     3.833349     0.508461
 C       0.854335     2.920207     1.549997
 C       1.144268     1.568478     1.387412
 C      -0.445755    -1.077285    -0.157170
 C      -1.118738     0.032556    -0.699461
 C      -2.495410     0.086756    -0.714361
 C      -3.273905    -0.966974    -0.178622
 C      -2.593455    -2.080147     0.369276
 C      -1.216658    -2.128793     0.371813
 N      -4.646854    -0.910089    -0.188452
 C      -5.437592    -1.748330     0.661774
 C      -5.353491    -0.011337    -1.050913
 C      -6.314698     0.842413    -0.511248
 C      -7.027108     1.692739    -1.350253
 C      -6.777549     1.699282    -2.720630
 C      -5.818128     0.842199    -3.255112
 C      -5.111240    -0.021836    -2.425437
 C      -6.454260    -2.523783     0.105731
 C      -7.246646    -3.313262     0.932493
 C      -7.022175    -3.337390     2.307007
 C      -6.006951    -2.558521     2.857905
 C      -5.219112    -1.754908     2.040330
 Cl      0.222441     3.446098     3.063731
 Cl      0.721938     5.497516     0.716258
 Cl      1.886237     4.436976    -2.020777
 H       7.461007    -3.227178    -0.462979
 H       7.016713    -5.578521    -0.857310
 H       4.684363    -6.437003    -0.958771
 H       2.797178    -4.882610    -0.670244
 H       3.988479     1.750205     0.587929
 H       6.285551     2.546768     0.798585
 H       8.187927     0.974232     0.466307
 H       7.773777    -1.366469    -0.033542
 H       1.193509    -3.202842    -0.508588
 H       2.279507     1.654441    -1.824733
 H       0.972985     0.873212     2.200988
 H      -0.562601     0.856890    -1.131431
 H      -2.989814     0.951647    -1.138821
 H      -3.160832    -2.901387     0.789025
 H      -0.729607    -2.989502     0.823004
 H      -6.500879     0.826274     0.558057
 H      -7.776221     2.355164    -0.930126
 H      -7.333733     2.365255    -3.371179
 H      -5.630180     0.833221    -4.323455
 H      -4.374817    -0.707783    -2.833608
 H      -6.620248    -2.494159    -0.966610
 H      -8.039006    -3.914427     0.499727
 H      -7.641044    -3.955683     2.947972
 H      -5.837795    -2.562425     3.929425
 H      -4.438093    -1.128348     2.460931

