#p opt=modredundant 6-31g(d,p) geom=connectivity m062x

Input=tpm3cl-h-scan.114514 ScanPoint 4

1 1
 C       4.538387    -0.296050     0.099768
 C       5.613513    -1.218122    -0.057450
 C       5.372952    -2.642933    -0.322932
 C       4.052895    -3.149005    -0.397803
 C       6.420905    -3.570015    -0.497689
 C       6.169379    -4.908386    -0.722346
 C       4.853554    -5.390716    -0.782528
 C       3.803249    -4.514232    -0.622397
 C       4.804973     1.051447     0.415844
 C       6.102802     1.498666     0.543310
 C       7.168762     0.609650     0.363105
 C       6.923371    -0.717085     0.076994
 C       3.005958    -2.187729    -0.252146
 C       3.215924    -0.847796    -0.052956
 N       1.637154    -2.378593    -0.310115
 C       0.994059    -1.206514    -0.165684
 N       1.943614    -0.256062    -0.012059
 C       1.653048     1.136985     0.170607
 C       1.877234     2.010418    -0.885262
 C       1.596815     3.360784    -0.709966
 C       1.086144     3.835539     0.509371
 C       0.867377     2.922884     1.551904
 C       1.153417     1.570492     1.387952
 C      -0.448057    -1.073435    -0.158270
 C      -1.121692     0.042946    -0.686834
 C      -2.498216     0.096755    -0.701221
 C      -3.276578    -0.963732    -0.178401
 C      -2.595712    -2.083761     0.355219
 C      -1.219149    -2.132096     0.356865
 N      -4.649208    -0.906895    -0.187318
 C      -5.440159    -1.756513     0.651467
 C      -5.355928     0.003625    -1.037458
 C      -6.315284     0.851735    -0.485807
 C      -7.027553     1.713510    -1.313174
 C      -6.779675     1.736866    -2.683678
 C      -5.822128     0.885244    -3.230147
 C      -5.115334     0.009960    -2.412273
 C      -6.457342    -2.523602     0.084924
 C      -7.250068    -3.323889     0.900901
 C      -7.025410    -3.366984     2.274915
 C      -6.009655    -2.596365     2.836317
 C      -5.221444    -1.782068     2.029750
 Cl      0.243647     3.450182     3.068522
 Cl      0.736789     5.500409     0.718660
 Cl      1.887346     4.437523    -2.023228
 H       7.451841    -3.242970    -0.460370
 H       6.999982    -5.593124    -0.852953
 H       4.665031    -6.444025    -0.956543
 H       2.782173    -4.882581    -0.671303
 H       3.993557     1.747304     0.579243
 H       6.292883     2.537454     0.789074
 H       8.190728     0.958679     0.460771
 H       7.769938    -1.381774    -0.034967
 H       1.221992    -3.139200    -0.492403
 H       2.275218     1.654059    -1.829055
 H       0.984077     0.875540     2.202209
 H      -0.566411     0.872815    -1.108971
 H      -2.992798     0.966653    -1.115068
 H      -3.162811    -2.910646     0.764091
 H      -0.732279    -2.999196     0.795807
 H      -6.500144     0.822341     0.583445
 H      -7.775220     2.371652    -0.883849
 H      -7.335783     2.411676    -3.325121
 H      -5.635575     0.889448    -4.298759
 H      -4.380345    -0.671834    -2.829881
 H      -6.623464    -2.479197    -0.986880
 H      -8.042834    -3.918594     0.460040
 H      -7.644563    -3.993607     2.907460
 H      -5.840351    -2.615098     3.907653
 H      -4.440060    -1.161735     2.458817

