#p opt=modredundant 6-31g(d,p) geom=connectivity m062x

Input=tpm3cl-h-scan.114514 ScanPoint 13

1 1
 C       4.540637    -0.280334     0.111458
 C       5.622928    -1.192789    -0.050525
 C       5.393641    -2.618626    -0.321555
 C       4.077918    -3.135878    -0.395685
 C       6.449583    -3.535596    -0.501166
 C       6.210305    -4.875716    -0.728791
 C       4.898933    -5.369680    -0.786738
 C       3.841255    -4.502698    -0.622449
 C       4.796452     1.067228     0.435889
 C       6.090687     1.524303     0.565542
 C       7.163654     0.645112     0.379474
 C       6.928728    -0.682028     0.086229
 C       3.022189    -2.183523    -0.247435
 C       3.221772    -0.840562    -0.044643
 N       1.656501    -2.376859    -0.305033
 C       1.002514    -1.213987    -0.162212
 N       1.947235    -0.256483    -0.004410
 C       1.645477     1.134673     0.174916
 C       1.876028     2.009286    -0.878681
 C       1.585210     3.357886    -0.707321
 C       1.056773     3.829854     0.505410
 C       0.830660     2.916049     1.545289
 C       1.127735     1.565529     1.385605
 C      -0.441509    -1.084162    -0.157245
 C      -1.113662     0.014085    -0.722346
 C      -2.490653     0.068633    -0.737787
 C      -3.268981    -0.973401    -0.180080
 C      -2.588864    -2.074526     0.391395
 C      -1.211635    -2.123330     0.395135
 N      -4.642533    -0.916701    -0.190787
 C      -5.432329    -1.735086     0.679205
 C      -5.349669    -0.037900    -1.072855
 C      -6.313089     0.825341    -0.552462
 C      -7.026381     1.656281    -1.409929
 C      -6.775546     1.634407    -2.779899
 C      -5.813860     0.768156    -3.295128
 C      -5.106169    -0.076811    -2.446686
 C      -6.448419    -2.524521     0.142018
 C      -7.239813    -3.295101     0.987351
 C      -7.014955    -3.286664     2.361989
 C      -6.000315    -2.494035     2.894037
 C      -5.213513    -1.709132     2.057498
 Cl      0.183626     3.439650     3.053435
 Cl      0.695005     5.492758     0.709986
 Cl      1.884777     4.435959    -2.017609
 H       7.477480    -3.199012    -0.465284
 H       7.046887    -5.552400    -0.863081
 H       4.719260    -6.424305    -0.962158
 H       2.824316    -4.882270    -0.668808
 H       3.979379     1.755161     0.604569
 H       6.272358     2.563048     0.817767
 H       8.182845     1.001716     0.478732
 H       7.780658    -1.339225    -0.029129
 H       1.134823    -3.327127    -0.545976
 H       2.287779     1.655174    -1.817412
 H       0.952808     0.869844     2.198038
 H      -0.556327     0.828952    -1.170824
 H      -2.985051     0.924692    -1.179856
 H      -3.156455    -2.885949     0.829604
 H      -0.723615    -2.972505     0.866745
 H      -6.500305     0.831645     0.516765
 H      -7.777212     2.325931    -1.004565
 H      -7.332355     2.285424    -3.444890
 H      -5.624745     0.736928    -4.362854
 H      -4.368015    -0.769731    -2.839662
 H      -6.614745    -2.520289    -0.930683
 H      -8.031724    -3.907043     0.569087
 H      -7.633029    -3.890324     3.017503
 H      -5.830834    -2.472483     3.965304
 H      -4.432857    -1.072225     2.462966

