%chk=tdtpm3cl-h-scan_ScanPoint3.chk
%mem=12GB
%nprocshared=12
#P B3LYP/6-31G(d) opt freq

Input=tpm3cl-h-scan.114514 ScanPoint 3

1 1
 C       4.538126    -0.297786     0.098598
 C       5.612449    -1.220962    -0.057865
 C       5.370635    -2.645635    -0.322804
 C       4.050098    -3.150388    -0.398173
 C       6.417696    -3.573895    -0.496689
 C       6.164805    -4.912050    -0.721100
 C       4.848483    -5.393008    -0.781956
 C       3.799006    -4.515411    -0.622612
 C       4.805887     1.049702     0.413750
 C       6.104098     1.495780     0.541231
 C       7.169280     0.605631     0.361938
 C       6.922742    -0.721047     0.076592
 C       3.004146    -2.188100    -0.253025
 C       3.215278    -0.848514    -0.054038
 N       1.635134    -2.378480    -0.311262
 C       0.993130    -1.205569    -0.166776
 N       1.943219    -0.255902    -0.013256
 C       1.653889     1.137333     0.169813
 C       1.877250     2.010649    -0.886319
 C       1.597984     3.361203    -0.710556
 C       1.089396     3.836240     0.509552
 C       0.871567     2.923699     1.552391
 C       1.156389     1.571111     1.387938
 C      -0.448748    -1.072261    -0.159281
 C      -1.122689     0.046425    -0.682788
 C      -2.499166     0.100050    -0.696869
 C      -3.277391    -0.962866    -0.178668
 C      -2.596301    -2.085346     0.349632
 C      -1.219815    -2.133510     0.350857
 N      -4.649910    -0.906059    -0.187038
 C      -5.440782    -1.759848     0.647620
 C      -5.356818     0.008864    -1.032344
 C      -6.315296     0.854862    -0.475964
 C      -7.027670     1.720942    -1.298734
 C      -6.780760     1.750613    -2.669293
 C      -5.824093     0.901050    -3.220489
 C      -5.117176     0.021535    -2.407269
 C      -6.458167    -2.523915     0.077392
 C      -7.250876    -3.328162     0.889484
 C      -7.025993    -3.378159     2.263226
 C      -6.010022    -2.610532     2.828315
 C      -5.221813    -1.792328     2.025711
 Cl      0.250563     3.451373     3.069992
 Cl      0.741407     5.501316     0.719400
 Cl      1.887372     4.437814    -2.024158
 H       7.448971    -3.247976    -0.458860
 H       6.994742    -5.597728    -0.851022
 H       4.658969    -6.446156    -0.955870
 H       2.777459    -4.882400    -0.672093
 H       3.995093     1.746476     0.576327
 H       6.295102     2.534572     0.786265
 H       8.191543     0.953782     0.459633
 H       7.768713    -1.386589    -0.034822
 H       1.231782    -3.117817    -0.487754
 H       2.273610     1.654057    -1.830705
 H       0.987770     0.876227     2.202402
 H      -0.567774     0.878288    -1.101384
 H      -2.993883     0.971714    -1.106803
 H      -3.163245    -2.914263     0.754577
 H      -0.732920    -3.002862     0.785275
 H      -6.499395     0.820499     0.593272
 H      -7.774650     2.377481    -0.865775
 H      -7.336961     2.428746    -3.307140
 H      -5.638315     0.910207    -4.289204
 H      -4.382851    -0.658685    -2.828597
 H      -6.624463    -2.474122    -0.994147
 H      -8.043805    -3.920527     0.445779
 H      -7.645144    -4.007827     2.892743
 H      -5.840535    -2.634666     3.899512
 H      -4.440264    -1.174270     2.457752

