%chk=tdtpm3cl-h-scan_ScanPoint17.chk
%mem=12GB
%nprocshared=12
#P B3LYP/6-31G(d) opt freq

Input=tpm3cl-h-scan.114514 ScanPoint 17

1 1
 C       4.541582    -0.275646     0.115018
 C       5.626034    -1.185096    -0.048569
 C       5.400174    -2.611286    -0.320966
 C       4.085838    -3.132062    -0.394358
 C       6.458563    -3.525109    -0.502097
 C       6.223107    -4.865847    -0.730094
 C       4.913152    -5.363489    -0.786718
 C       3.853258    -4.499383    -0.621155
 C       4.794122     1.071950     0.441861
 C       6.087255     1.532102     0.571837
 C       7.162340     0.655971     0.383795
 C       6.930584    -0.671305     0.088546
 C       3.027248    -2.182549    -0.245361
 C       3.223671    -0.838254    -0.041777
 N       1.663120    -2.375150    -0.301890
 C       1.005171    -1.216231    -0.160479
 N       1.948688    -0.256246    -0.001602
 C       1.643429     1.134314     0.176336
 C       1.875683     2.009070    -0.876806
 C       1.581545     3.357124    -0.706994
 C       1.047665     3.828460     0.503562
 C       0.819471     2.914528     1.542846
 C       1.120106     1.564606     1.384831
 C      -0.439523    -1.087397    -0.156530
 C      -1.111161     0.004476    -0.733644
 C      -2.488360     0.059211    -0.749410
 C      -3.266629    -0.976456    -0.180322
 C      -2.586725    -2.070966     0.403614
 C      -1.209233    -2.119733     0.408210
 N      -4.640556    -0.919878    -0.191725
 C      -5.430049    -1.727686     0.688220
 C      -5.347741    -0.051738    -1.084072
 C      -6.312361     0.816388    -0.574058
 C      -7.025909     1.637034    -1.441167
 C      -6.774145     1.600249    -2.810636
 C      -5.811227     0.729303    -3.315511
 C      -5.103331    -0.105541    -2.457259
 C      -6.446116    -2.523769     0.160820
 C      -7.237221    -3.284315     1.015452
 C      -7.012106    -3.259408     2.389844
 C      -5.997491    -2.460272     2.912118
 C      -5.211018    -1.685276     2.066082
 Cl      0.165317     3.437251     3.048252
 Cl      0.681868     5.490757     0.706249
 Cl      1.883665     4.435330    -2.016651
 H       7.485487    -3.185492    -0.467086
 H       7.061520    -5.540024    -0.865546
 H       4.736203    -6.418590    -0.962045
 H       2.837572    -4.882261    -0.666032
 H       3.975328     1.757407     0.612279
 H       6.266358     2.570843     0.825909
 H       8.180682     1.014932     0.483271
 H       7.784138    -1.326183    -0.027968
 H       1.091717    -3.408277    -0.569205
 H       2.291609     1.655469    -1.813889
 H       0.943609     0.868864     2.196872
 H      -0.553197     0.814206    -1.190767
 H      -2.982726     0.910467    -1.200727
 H      -3.154446    -2.876968     0.851592
 H      -0.720556    -2.962350     0.890835
 H      -6.500311     0.834498     0.494904
 H      -7.777664     2.310401    -1.043737
 H      -7.331102     2.243332    -3.483181
 H      -5.621274     0.686431    -4.382688
 H      -4.364216    -0.802005    -2.842075
 H      -6.612677    -2.532422    -0.911823
 H      -8.029119    -3.901337     0.604677
 H      -7.629933    -3.855288     3.052667
 H      -5.827780    -2.425838     3.983017
 H      -4.430361    -1.043474     2.463754

