%chk=tdtpm3cl-h-scan_ScanPoint6.chk
%mem=12GB
%nprocshared=12
#P B3LYP/6-31G(d) opt freq

Input=tpm3cl-h-scan.114514 ScanPoint 6

1 1
 C       4.538916    -0.292318     0.102252
 C       5.615738    -1.212113    -0.056216
 C       5.377830    -2.637196    -0.322900
 C       4.058783    -3.145955    -0.397234
 C       6.427657    -3.561871    -0.499074
 C       6.178995    -4.900676    -0.724345
 C       4.864210    -5.385797    -0.783646
 C       3.812167    -4.511587    -0.622268
 C       4.802991     1.055221     0.420198
 C       6.099991     1.504803     0.547951
 C       7.167600     0.618111     0.366234
 C       6.924657    -0.708751     0.078544
 C       3.009782    -2.186785    -0.250787
 C       3.217291    -0.846154    -0.050976
 N       1.641537    -2.378584    -0.308520
 C       0.996038    -1.208384    -0.164320
 N       1.944437    -0.256280    -0.010096
 C       1.651226     1.136330     0.171847
 C       1.876889     2.010084    -0.883459
 C       1.594025     3.360032    -0.709010
 C       1.079216     3.834092     0.508833
 C       0.858743     2.921125     1.550713
 C       1.147365     1.569170     1.387681
 C      -0.446543    -1.075947    -0.157245
 C      -1.119702     0.035990    -0.695232
 C      -2.496324     0.090080    -0.710019
 C      -3.274810    -0.965799    -0.178388
 C      -2.594260    -2.081155     0.365054
 C      -1.217540    -2.129727     0.367344
 N      -4.647657    -0.908922    -0.188017
 C      -5.438528    -1.750758     0.658564
 C      -5.354252    -0.006517    -1.046747
 C      -6.314970     0.845471    -0.503461
 C      -7.027275     1.699341    -1.338950
 C      -6.778091     1.711105    -2.709362
 C      -5.819167     0.855725    -3.247465
 C      -5.112370    -0.011793    -2.421359
 C      -6.455339    -2.523572     0.099133
 C      -7.247891    -3.316468     0.922460
 C      -7.023442    -3.346590     2.296857
 C      -6.008075    -2.570321     2.851145
 C      -5.220062    -1.763327     2.037076
 Cl      0.229594     3.447509     3.065415
 Cl      0.726964     5.498499     0.717115
 Cl      1.886645     4.437135    -2.021546
 H       7.457883    -3.232539    -0.462407
 H       7.011002    -5.583493    -0.856052
 H       4.677762    -6.439428    -0.957954
 H       2.792064    -4.882665    -0.670375
 H       3.990254     1.749207     0.584975
 H       6.288104     2.543603     0.795176
 H       8.188925     0.968952     0.464107
 H       7.772489    -1.371673    -0.034293
 H       1.202884    -3.181710    -0.502770
 H       2.278098     1.654290    -1.826103
 H       0.976728     0.874020     2.201494
 H      -0.563815     0.862078    -1.124088
 H      -2.990760     0.956572    -1.131148
 H      -3.161570    -2.904190     0.781354
 H      -0.730586    -2.992490     0.814686
 H      -6.500857     0.825212     0.565825
 H      -7.776007     2.360427    -0.916046
 H      -7.334203     2.379812    -3.357161
 H      -5.631541     0.850838    -4.315890
 H      -4.376332    -0.696447    -2.832384
 H      -6.621307    -2.489280    -0.973069
 H      -8.040361    -3.915595     0.487081
 H      -7.642445    -3.967520     2.935139
 H      -5.838937    -2.578908     3.922639
 H      -4.438953    -1.138722     2.460410

